Solving original (integer) problem with strategy gdp.bigm...
--- Job model.gms Start 02/14/26 18:03:56 52.2.0 d8e408be LEX-LEG x86 64bit/Linux
--- Applying:
    /package/gams/52.2/gmsprmun.txt
--- GAMS Parameters defined
    Input /local/scratch/a/sgusev/repos/k_means/data/gams_gurobi_gdp.bigm/no_mode/2026-02-14_18-03-55/original/model.gms
    Output /local/scratch/a/sgusev/repos/k_means/data/gams_gurobi_gdp.bigm/no_mode/2026-02-14_18-03-55/original/output.lst
    ScrDir /local/scratch/a/sgusev/repos/k_means/data/gams_gurobi_gdp.bigm/no_mode/2026-02-14_18-03-55/original/225a/
    SysDir /package/gams/52.2/
    CurDir /local/scratch/a/sgusev/repos/k_means/data/gams_gurobi_gdp.bigm/no_mode/2026-02-14_18-03-55/original/
    LogOption 3
    AppendLog 1
Licensee: David Bernal / SECQUOIA Research Group         G251008+0003Ac-GEN
          Purdue University, Davidson School of Chemical EngineeringDCE4838
          225a/gamslice.dat
          5a82958a-fbca-4a23
          node:66820903 mem:995 cores:48 ipport:37021 v:2                  
          Evaluation license: Not for commercial or production use
          The time-limited license stops working on : Jun 30, 2027
System information: 48 physical cores and 995 Gb physical memory detected
GAMS 52.2.0   Copyright (C) 1987-2025 GAMS Development. All rights reserved
--- Starting compilation
--- model.gms(235) 2 Mb
--- $echo File /local/scratch/a/sgusev/repos/k_means/data/gams_gurobi_gdp.bigm/no_mode/2026-02-14_18-03-55/original/gurobi.opt
--- model.gms(423) 2 Mb
--- Starting execution: elapsed 0:00:00.006
--- model.gms(244) 3 Mb
--- Generating MINLP model GAMS_MODEL
--- model.gms(248) 5 Mb
---   59 rows  63 columns  229 non-zeroes
---   378 nl-code  84 nl-non-zeroes
---   42 discrete-columns
--- Range statistics (absolute non-zero finite values)
--- RHS       [min, max] : [ 1.000E+00, 6.945E+00] - Zero values observed as well
--- Bound     [min, max] : [ 1.000E+00, 5.600E+01] - Zero values observed as well
--- Matrix    [min, max] : [ 1.986E-02, 6.945E+00]
--- model.gms(248) 3 Mb
--- Executing GUROBI (Solvelink=5): elapsed 0:00:00.008
Reading parameter(s) from "/local/scratch/a/sgusev/repos/k_means/data/gams_gurobi_gdp.bigm/no_mode/2026-02-14_18-03-55/original/gurobi.opt"
>>  NonConvex 2
>>  Threads 1
>>  MIPGap 1e-06
>>  MIPGapAbs 1e-10
>>  FeasibilityTol 1e-06
>>  OptimalityTol 1e-06
>>  IntFeasTol 1e-05
Finished reading from "/local/scratch/a/sgusev/repos/k_means/data/gams_gurobi_gdp.bigm/no_mode/2026-02-14_18-03-55/original/gurobi.opt"

... GRB_LICENSE_FILE = /local/scratch/a/sgusev/gurobi.lic

    Gurobi           52.2.0 d8e408be Dec 8, 2025           LEG x86 64bit/Linux    

... GAMS/Gurobi Link license.
... GMO Q Extraction (ThreePass): 0.00s

    Gurobi Optimizer version 13.0.0 build v13.0.0rc1 (linux64 - "Oracle Linux Server 9.7")
    
    CPU model: AMD EPYC 7643 48-Core Processor, instruction set [SSE2|AVX|AVX2]
    Thread count: 48 physical cores, 96 logical processors, using up to 1 threads
    
    Non-default parameters:
    TimeLimit  300
    MIPGap  1e-06
    LogToConsole  0
    NonConvex  2
    Threads  1
    
    Optimize a model with 16 rows, 62 columns and 46 nonzeros (Min)
    Model fingerprint: 0xe74604a2
    Model has 14 linear objective coefficients
    Model has 42 quadratic constraints
    Variable types: 20 continuous, 42 integer (0 binary)
    Coefficient statistics:
      Matrix range     [1e+00, 1e+00]
      QMatrix range    [1e+00, 1e+00]
      QLMatrix range   [2e-02, 7e+00]
      Objective range  [1e+00, 1e+00]
      Bounds range     [1e+00, 6e+01]
      RHS range        [1e+00, 1e+00]
      QRHS range       [2e+00, 5e+00]
    Presolve added 42 rows and 3 columns
    Presolve time: 0.00s
    Presolved: 58 rows, 65 columns, 256 nonzeros
    Presolved model has 3 quadratic constraint(s)
    Variable types: 23 continuous, 42 integer (42 binary)
    
    Root relaxation: objective 0.000000e+00, 23 iterations, 0.00 seconds (0.00 work units)
    
        Nodes    |    Current Node    |     Objective Bounds      |     Work
     Expl Unexpl |  Obj  Depth IntInf | Incumbent    BestBd   Gap | It/Node Time
    
    H    0     0                       3.5414485    0.00000   100%     -    0s
    *    0     0               0       3.5414485    0.00000   100%     -    0s
         0     0    0.00000    0   20    3.54145    0.00000   100%     -    0s
    H    0     0                       2.3698776    0.00000   100%     -    0s
    *    0     0               0       2.3698776    0.00000   100%     -    0s
         0     0    0.00000    0   21    2.36988    0.00000   100%     -    0s
         0     0    0.00000    0   26    2.36988    0.00000   100%     -    0s
         0     0    0.00000    0   23    2.36988    0.00000   100%     -    0s
         0     0    0.00000    0    -    2.36988    0.00000   100%     -    0s
         0     0    0.00000    0   16    2.36988    0.00000   100%     -    0s
         0     0    0.00000    0   18    2.36988    0.00000   100%     -    0s
         0     0    0.00000    0   16    2.36988    0.00000   100%     -    0s
         0     0    0.00000    0   18    2.36988    0.00000   100%     -    0s
         0     0    0.00000    0   24    2.36988    0.00000   100%     -    0s
         0     0    0.00000    0   14    2.36988    0.00000   100%     -    0s
    H    0     0                       2.3698776    0.00000   100%     -    0s
         0     0    0.00000    0   18    2.36988    0.00000   100%     -    0s
         0     0    0.00000    0   24    2.36988    0.00000   100%     -    0s
         0     0    0.00000    0   10    2.36988    0.00000   100%     -    0s
    H    0     0                       2.2245096    0.00000   100%     -    0s
         0     0    0.00000    0   14    2.22451    0.00000   100%     -    0s
         0     0    0.00000    0   20    2.22451    0.00000   100%     -    0s
         0     0    0.00000    0   14    2.22451    0.00000   100%     -    0s
         0     0    0.00000    0   24    2.22451    0.00000   100%     -    0s
         0     0    0.00000    0   16    2.22451    0.00000   100%     -    0s
         0     0    0.00000    0   26    2.22451    0.00000   100%     -    0s
         0     0    0.00000    0   16    2.22451    0.00000   100%     -    0s
         0     0    0.00000    0   24    2.22451    0.00000   100%     -    0s
         0     0    0.00000    0   21    2.22451    0.00000   100%     -    0s
         0     0    0.00000    0   26    2.22451    0.00000   100%     -    0s
         0     0    0.00000    0   20    2.22451    0.00000   100%     -    0s
         0     0    0.00000    0   24    2.22451    0.00000   100%     -    0s
         0     0    0.00000    0   24    2.22451    0.00000   100%     -    0s
         0     0    0.00000    0   24    2.22451    0.00000   100%     -    0s
         0     0    0.00000    0   24    2.22451    0.00000   100%     -    0s
         0     0    0.00000    0   24    2.22451    0.00000   100%     -    0s
         0     0    0.00000    0   18    2.22451    0.00000   100%     -    0s
         0     0    0.00000    0   22    2.22451    0.00000   100%     -    0s
         0     0    0.00000    0   22    2.22451    0.00000   100%     -    0s
         0     0    0.00000    0   26    2.22451    0.00000   100%     -    0s
         0     0    0.00000    0   20    2.22451    0.00000   100%     -    0s
         0     0    0.00000    0   26    2.22451    0.00000   100%     -    0s
         0     0    0.00000    0   18    2.22451    0.00000   100%     -    0s
         0     0    0.00000    0   18    2.22451    0.00000   100%     -    0s
         0     0    0.00000    0   18    2.22451    0.00000   100%     -    0s
         0     0    0.00000    0   22    2.22451    0.00000   100%     -    0s
         0     0    0.00000    0   16    2.22451    0.00000   100%     -    0s
         0     0    0.00000    0   22    2.22451    0.00000   100%     -    0s
         0     0    0.00000    0   22    2.22451    0.00000   100%     -    0s
         0     0    0.00000    0   27    2.22451    0.00000   100%     -    0s
         0     0    0.00000    0   22    2.22451    0.00000   100%     -    0s
         0     0    0.00000    0   27    2.22451    0.00000   100%     -    0s
         0     0    0.00000    0   26    2.22451    0.00000   100%     -    0s
         0     0    0.00000    0   20    2.22451    0.00000   100%     -    0s
         0     0    0.00000    0   20    2.22451    0.00000   100%     -    0s
         0     0    0.00000    0   24    2.22451    0.00000   100%     -    0s
         0     0    0.00000    0   24    2.22451    0.00000   100%     -    0s
         0     0    0.00000    0   24    2.22451    0.00000   100%     -    0s
         0     0    0.00000    0   21    2.22451    0.00000   100%     -    0s
         0     0    0.00000    0   27    2.22451    0.00000   100%     -    0s
         0     0    0.00000    0   16    2.22451    0.00000   100%     -    0s
         0     0    0.00000    0   16    2.22451    0.00000   100%     -    0s
         0     0    0.00000    0   16    2.22451    0.00000   100%     -    0s
         0     0    0.00000    0   20    2.22451    0.00000   100%     -    0s
         0     0    0.00000    0   20    2.22451    0.00000   100%     -    0s
         0     0    0.00000    0   24    2.22451    0.00000   100%     -    0s
         0     0    0.00000    0   17    2.22451    0.00000   100%     -    0s
         0     0    0.00000    0   22    2.22451    0.00000   100%     -    0s
         0     0    0.00000    0   22    2.22451    0.00000   100%     -    0s
         0     0    0.00000    0   26    2.22451    0.00000   100%     -    0s
         0     0    0.00000    0   18    2.22451    0.00000   100%     -    0s
         0     0    0.00000    0   14    2.22451    0.00000   100%     -    0s
         0     0    0.00000    0   14    2.22451    0.00000   100%     -    0s
         0     0    0.00000    0   22    2.22451    0.00000   100%     -    0s
         0     0    0.00000    0   22    2.22451    0.00000   100%     -    0s
         0     0    0.00000    0   24    2.22451    0.00000   100%     -    0s
         0     0    0.00000    0   16    2.22451    0.00000   100%     -    0s
         0     0    0.00000    0   26    2.22451    0.00000   100%     -    0s
         0     0    0.00000    0   20    2.22451    0.00000   100%     -    0s
         0     0    0.00000    0   28    2.22451    0.00000   100%     -    0s
         0     0    0.00000    0   26    2.22451    0.00000   100%     -    0s
         0     0    0.00000    0   24    2.22451    0.00000   100%     -    0s
         0     0    0.00000    0   16    2.22451    0.00000   100%     -    0s
         0     0    0.00000    0   20    2.22451    0.00000   100%     -    0s
         0     0    0.00000    0   20    2.22451    0.00000   100%     -    0s
         0     0    0.00000    0   26    2.22451    0.00000   100%     -    0s
         0     0    0.00000    0   22    2.22451    0.00000   100%     -    0s
         0     0    0.00000    0   16    2.22451    0.00000   100%     -    0s
         0     0    0.00000    0   16    2.22451    0.00000   100%     -    0s
         0     0    0.00000    0   25    2.22451    0.00000   100%     -    0s
         0     0    0.00000    0   14    2.22451    0.00000   100%     -    0s
         0     0    0.00000    0   26    2.22451    0.00000   100%     -    0s
         0     0    0.00000    0   18    2.22451    0.00000   100%     -    0s
         0     0    0.00000    0   24    2.22451    0.00000   100%     -    0s
         0     0    0.00000    0   24    2.22451    0.00000   100%     -    0s
         0     0    0.00000    0   26    2.22451    0.00000   100%     -    0s
         0     0    0.00000    0   24    2.22451    0.00000   100%     -    0s
         0     0    0.00000    0   21    2.22451    0.00000   100%     -    0s
         0     0    0.00000    0   21    2.22451    0.00000   100%     -    0s
         0     0    0.00000    0   23    2.22451    0.00000   100%     -    0s
         0     0    0.00000    0   22    2.22451    0.00000   100%     -    0s
         0     0    0.00000    0   26    2.22451    0.00000   100%     -    0s
         0     0    0.00000    0   14    2.22451    0.00000   100%     -    0s
         0     0    0.00000    0   27    2.22451    0.00000   100%     -    0s
         0     0    0.00000    0   22    2.22451    0.00000   100%     -    0s
         0     0    0.00000    0   24    2.22451    0.00000   100%     -    0s
         0     0    0.00000    0   24    2.22451    0.00000   100%     -    0s
         0     0    0.00000    0   24    2.22451    0.00000   100%     -    0s
         0     0    0.00000    0   12    2.22451    0.00000   100%     -    0s
         0     0    0.00000    0   24    2.22451    0.00000   100%     -    0s
         0     0    0.00000    0   24    2.22451    0.00000   100%     -    0s
         0     0    0.00000    0   22    2.22451    0.00000   100%     -    0s
         0     0    0.00000    0   22    2.22451    0.00000   100%     -    0s
         0     0    0.00000    0   28    2.22451    0.00000   100%     -    0s
         0     0    0.00000    0   10    2.22451    0.00000   100%     -    0s
         0     0    0.00000    0   16    2.22451    0.00000   100%     -    0s
         0     0    0.00000    0   16    2.22451    0.00000   100%     -    0s
         0     0    0.00000    0   22    2.22451    0.00000   100%     -    0s
         0     0    0.00000    0   22    2.22451    0.00000   100%     -    0s
         0     0    0.00000    0   24    2.22451    0.00000   100%     -    0s
         0     0    0.00000    0   24    2.22451    0.00000   100%     -    0s
         0     0    0.00000    0   17    2.22451    0.00000   100%     -    0s
         0     0    0.00000    0   17    2.22451    0.00000   100%     -    0s
         0     0    0.00000    0   24    2.22451    0.00000   100%     -    0s
         0     0    0.00000    0   22    2.22451    0.00000   100%     -    0s
         0     0    0.00000    0   28    2.22451    0.00000   100%     -    0s
         0     0    0.00000    0   20    2.22451    0.00000   100%     -    0s
         0     0    0.00000    0   22    2.22451    0.00000   100%     -    0s
         0     0    0.00000    0   20    2.22451    0.00000   100%     -    0s
         0     0    0.00000    0   24    2.22451    0.00000   100%     -    0s
         0     0    0.00000    0   12    2.22451    0.00000   100%     -    0s
         0     0    0.00000    0   22    2.22451    0.00000   100%     -    0s
         0     0    0.00000    0   16    2.22451    0.00000   100%     -    0s
         0     0    0.00000    0   24    2.22451    0.00000   100%     -    0s
         0     0    0.00000    0   20    2.22451    0.00000   100%     -    0s
         0     0    0.00000    0   18    2.22451    0.00000   100%     -    0s
         0     0    0.00000    0   18    2.22451    0.00000   100%     -    0s
         0     0    0.00000    0   18    2.22451    0.00000   100%     -    0s
         0     0    0.00000    0   10    2.22451    0.00000   100%     -    0s
         0     0    0.00000    0   20    2.22451    0.00000   100%     -    0s
         0     0    0.00000    0   20    2.22451    0.00000   100%     -    0s
         0     0    0.00000    0   24    2.22451    0.00000   100%     -    0s
         0     0    0.00000    0   24    2.22451    0.00000   100%     -    0s
         0     0    0.00000    0   24    2.22451    0.00000   100%     -    0s
         0     0    0.00000    0   22    2.22451    0.00000   100%     -    0s
         0     0    0.00000    0   22    2.22451    0.00000   100%     -    0s
         0     0    0.00000    0   20    2.22451    0.00000   100%     -    0s
         0     0    0.00000    0   22    2.22451    0.00000   100%     -    0s
         0     0    0.00000    0   20    2.22451    0.00000   100%     -    0s
         0     0    0.00000    0   24    2.22451    0.00000   100%     -    0s
         0     0    0.00000    0   21    2.22451    0.00000   100%     -    0s
         0     0    0.00000    0   22    2.22451    0.00000   100%     -    0s
         0     0    0.00000    0   22    2.22451    0.00000   100%     -    0s
         0     0    0.00000    0   26    2.22451    0.00000   100%     -    0s
         0     0    0.00000    0   22    2.22451    0.00000   100%     -    0s
         0     0    0.00000    0   12    2.22451    0.00000   100%     -    0s
         0     0    0.00000    0   12    2.22451    0.00000   100%     -    0s
         0     0    0.00000    0   20    2.22451    0.00000   100%     -    0s
         0     0    0.00000    0   20    2.22451    0.00000   100%     -    0s
         0     0    0.00000    0   22    2.22451    0.00000   100%     -    0s
         0     0    0.00000    0   22    2.22451    0.00000   100%     -    0s
         0     0    0.00000    0   24    2.22451    0.00000   100%     -    0s
         0     0    0.00000    0   21    2.22451    0.00000   100%     -    0s
         0     0    0.00000    0   27    2.22451    0.00000   100%     -    0s
         0     0    0.00000    0   16    2.22451    0.00000   100%     -    0s
         0     0    0.00000    0   24    2.22451    0.00000   100%     -    0s
         0     0    0.00000    0   24    2.22451    0.00000   100%     -    0s
         0     0    0.00000    0   24    2.22451    0.00000   100%     -    0s
         0     0    0.00000    0   22    2.22451    0.00000   100%     -    0s
         0     0    0.00000    0   18    2.22451    0.00000   100%     -    0s
         0     0    0.00000    0   18    2.22451    0.00000   100%     -    0s
         0     0    0.00000    0   18    2.22451    0.00000   100%     -    0s
         0     0    0.00000    0   18    2.22451    0.00000   100%     -    0s
         0     0    0.00000    0   20    2.22451    0.00000   100%     -    0s
         0     0    0.00000    0   18    2.22451    0.00000   100%     -    0s
         0     0    0.00000    0   27    2.22451    0.00000   100%     -    0s
         0     0    0.00000    0   12    2.22451    0.00000   100%     -    0s
         0     0    0.00000    0   20    2.22451    0.00000   100%     -    0s
         0     0    0.00000    0   18    2.22451    0.00000   100%     -    0s
         0     0    0.00000    0   24    2.22451    0.00000   100%     -    0s
         0     0    0.00000    0   24    2.22451    0.00000   100%     -    0s
         0     0    0.00000    0   26    2.22451    0.00000   100%     -    0s
         0     0    0.00000    0   26    2.22451    0.00000   100%     -    0s
         0     0    0.00000    0   26    2.22451    0.00000   100%     -    0s
         0     0    0.00000    0   18    2.22451    0.00000   100%     -    0s
         0     0    0.00000    0   22    2.22451    0.00000   100%     -    0s
         0     0    0.00000    0   22    2.22451    0.00000   100%     -    0s
         0     0    0.00000    0   28    2.22451    0.00000   100%     -    0s
         0     0    0.00000    0   20    2.22451    0.00000   100%     -    0s
         0     0    0.00000    0   22    2.22451    0.00000   100%     -    0s
         0     0    0.00000    0   22    2.22451    0.00000   100%     -    0s
         0     0    0.00000    0   22    2.22451    0.00000   100%     -    0s
         0     0    0.00000    0   18    2.22451    0.00000   100%     -    0s
         0     0    0.00000    0   24    2.22451    0.00000   100%     -    0s
         0     0    0.00000    0   16    2.22451    0.00000   100%     -    0s
         0     0    0.00000    0   26    2.22451    0.00000   100%     -    0s
         0     0    0.00000    0   24    2.22451    0.00000   100%     -    0s
         0     0    0.00000    0   28    2.22451    0.00000   100%     -    0s
         0     0    0.00000    0   20    2.22451    0.00000   100%     -    0s
         0     0    0.00000    0   14    2.22451    0.00000   100%     -    0s
         0     0    0.00000    0   14    2.22451    0.00000   100%     -    0s
         0     0    0.00000    0   24    2.22451    0.00000   100%     -    0s
         0     0    0.00000    0   15    2.22451    0.00000   100%     -    0s
         0     0    0.00000    0   18    2.22451    0.00000   100%     -    0s
         0     0    0.00000    0   14    2.22451    0.00000   100%     -    0s
         0     0    0.00000    0   20    2.22451    0.00000   100%     -    0s
         0     0    0.00000    0   16    2.22451    0.00000   100%     -    0s
         0     0    0.00000    0   22    2.22451    0.00000   100%     -    0s
         0     0    0.00000    0   20    2.22451    0.00000   100%     -    0s
         0     0    0.00000    0   27    2.22451    0.00000   100%     -    0s
         0     0    0.00000    0   22    2.22451    0.00000   100%     -    0s
         0     2    0.00000    0   22    2.22451    0.00000   100%     -    0s
    H  107    56                       2.2245096    0.00000   100%   8.4    0s
    H  211   127                       2.0978188    0.00000   100%   8.7    0s
    H  264   141                       2.0978188    0.00000   100%   8.4    0s
    H  318   165                       2.0978188    0.01317  99.4%   8.2    0s
    H  367   192                       2.0978187    0.10337  95.1%   8.2    0s
    H  400   203                       2.0978187    0.10337  95.1%  10.3    0s
    H  683   254                       2.0464192    0.28317  86.2%   8.3    0s
    H  822   244                       1.9512901    0.34891  82.1%   7.7    0s
    H  823   229                       1.9119355    0.34891  81.8%   7.7    0s
    H  898   228                       1.9119355    0.56709  70.3%   7.5    0s
    H  932   239                       1.9119355    0.60312  68.5%   7.3    0s
    H  942   243                       1.9119355    0.60724  68.2%   7.4    0s
    H  969   243                       1.9119355    0.61253  68.0%   7.3    0s
    H  998   254                       1.9119355    0.62521  67.3%   7.2    0s
    H 1012   257                       1.9119354    0.62521  67.3%   7.2    0s
    H 1059   257                       1.9119354    0.62549  67.3%   7.1    0s
    * 2946     0              38       1.9119351    1.91194  0.00%   6.1    0s
    
    Explored 2947 nodes (25260 simplex iterations) in 0.72 seconds (0.50 work units)
    Thread count was 1 (of 96 available processors)
    
    Solution count 7: 1.91194 1.95129 2.04642 ... 3.54145
    
    Optimal solution found (tolerance 1.00e-06)
    Best objective 1.911935072466e+00, best bound 1.911935072466e+00, gap 0.0000%
    
    User-callback calls 3069, time in user-callback 0.00 sec

... Solving fixed model...

    Gurobi Optimizer version 13.0.0 build v13.0.0rc1 (linux64 - "Oracle Linux Server 9.7")
    
    CPU model: AMD EPYC 7643 48-Core Processor, instruction set [SSE2|AVX|AVX2]
    Thread count: 48 physical cores, 96 logical processors, using up to 1 threads
    
    Non-default parameters:
    TimeLimit  300
    MIPGap  1e-06
    LogToConsole  0
    NonConvex  2
    Threads  1
    
    Optimize a model with 16 rows, 62 columns and 46 nonzeros (Min)
    Model fingerprint: 0x2c5dc00a
    Model has 14 linear objective coefficients
    Model has 42 quadratic constraints
    Coefficient statistics:
      Matrix range     [1e+00, 1e+00]
      QMatrix range    [1e+00, 1e+00]
      QLMatrix range   [2e-02, 7e+00]
      Objective range  [1e+00, 1e+00]
      Bounds range     [1e+00, 6e+01]
      RHS range        [1e+00, 1e+00]
      QRHS range       [2e+00, 5e+00]
    Presolve removed 14 rows and 42 columns
    Presolve time: 0.00s
    Presolved: 57 rows, 70 columns, 137 nonzeros
    Presolved model has 14 second-order cone constraints
    Ordering time: 0.00s
    
    Barrier statistics:
     AA' NZ     : 4.320e+02
     Factor NZ  : 6.770e+02
     Factor Ops : 1.116e+04 (less than 1 second per iteration)
     Threads    : 1
    
                      Objective                Residual
    Iter       Primal          Dual         Primal    Dual     Compl     Time
       0   5.22181621e+02 -1.98799154e+02  1.48e+01 2.03e+00  9.65e+00     0s
       1   4.13732516e+01 -3.21032082e+01  1.62e-05 2.23e-06  7.65e-01     0s
       2   2.62916512e+00 -2.14087787e+00  4.02e-07 2.04e-07  4.97e-02     0s
       3   2.17817702e+00  1.55523658e+00  4.42e-13 1.22e-08  6.49e-03     0s
       4   1.92511580e+00  1.86991525e+00  2.25e-13 1.13e-09  5.75e-04     0s
       5   1.91304488e+00  1.90816702e+00  1.57e-13 9.95e-11  5.08e-05     0s
       6   1.91197165e+00  1.91151983e+00  1.86e-12 1.07e-11  4.71e-06     0s
       7   1.91193724e+00  1.91188255e+00  8.76e-11 1.72e-12  5.70e-07     0s
       8   1.91193585e+00  1.91192403e+00  3.00e-09 7.52e-12  1.23e-07     0s
       9   1.91193534e+00  1.91193417e+00  1.47e-09 5.42e-11  1.21e-08     0s
    
    Barrier solved model in 9 iterations and 0.00 seconds (0.00 work units)
    Optimal objective 1.91193534e+00
    
    
    User-callback calls 0, time in user-callback 0.00 sec
    Warning: to get QCP duals, please set parameter QCPDual to 1

--- Reading solution for model GAMS_MODEL
***
*** Solver did not provide marginals for model GAMS_MODEL
***
--- Executing after solve: elapsed 0:00:00.760
--- model.gms(251) 3 Mb
--- model.gms(423) 5 Mb
--- Putfile results /local/scratch/a/sgusev/repos/k_means/data/gams_gurobi_gdp.bigm/no_mode/2026-02-14_18-03-55/original/results.dat
--- Putfile statresults /local/scratch/a/sgusev/repos/k_means/data/gams_gurobi_gdp.bigm/no_mode/2026-02-14_18-03-55/original/resultsstat.dat
*** Status: Normal completion
--- Job model.gms Stop 02/14/26 18:03:57 elapsed 0:00:00.761
Original problem solved. Time taken: 1.3076834678649902 seconds
Original objective value: 1.91193533537071
